100
1000
200
198
198
197
197
196
194
194
193
193
193
193
193
192
191
191
190
189
188
187
187
186
186
186
185
185
184
183
183
182
181
181
179
179
179
178
177
177
177
177
177
176
176
175
175
175
173
173
173
173
173
171
171
169
169
167
167
167
167
166
166
165
165
165
163
163
163
162
162
162
161
161
161
161
160
160
160
160
159
159
158
157
157
157
157
156
156
156
155
155
155
154
154
154
153
152
152
151
150
150
